DATASET = "thpack7";
INSTANCE = "053";

WIDTH = 233;
HEIGHT = 220;
LENGTH = 587;

NO_OF_SHAPES = 20;
size = [|
  78,37,27 |
  89,70,25 |
  90,84,41 |
  85,75,42 |
  91,77,44 |
  114,87,71 |
  90,37,25 |
  105,80,77 |
  74,71,50 |
  62,57,55 |
  89,45,26 |
  65,54,47 |
  79,62,28 |
  84,40,35 |
  55,44,42 |
  115,30,29 |
  93,60,25 |
  96,83,50 |
  86,75,62 |
  76,60,36 |
|];

verticality = [|
  0,1,1 |
  0,0,1 |
  0,0,1 |
  0,1,1 |
  0,1,1 |
  1,1,1 |
  0,1,1 |
  1,1,1 |
  1,1,1 |
  1,1,1 |
  0,1,1 |
  1,1,1 |
  0,0,1 |
  0,1,1 |
  1,1,1 |
  0,1,1 |
  0,0,1 |
  1,1,1 |
  1,1,1 |
  0,1,1 |
|];

box_count = [
  6,
  10,
  11,
  7,
  3,
  8,
  5,
  4,
  6,
  6,
  5,
  5,
  2,
  9,
  4,
  6,
  8,
  7,
  5,
  5,
];
